Version identifier: 12.10.0.0 | 2019-11-26 | 843d4de
CPXPARAM_MIP_Interval                            10
CPXPARAM_MIP_Tolerances_AbsMIPGap                0.98999999999999999
Tried aggregator 2 times.
MIP Presolve eliminated 512 rows and 236 columns.
MIP Presolve added 4 rows and 0 columns.
MIP Presolve modified 54 coefficients.
Aggregator did 11 substitutions.
Reduced MIP has 223 rows, 56 columns, and 522 nonzeros.
Reduced MIP has 41 binaries, 15 generals, 0 SOSs, and 0 indicators.
Presolve time = 0.00 sec. (1.11 ticks)
Found incumbent of value 4.000000 after 0.00 sec. (1.84 ticks)
Probing fixed 0 vars, tightened 6 bounds.
Probing time = 0.00 sec. (0.15 ticks)
Cover probing fixed 0 vars, tightened 4 bounds.
Tried aggregator 1 time.
Detecting symmetries...
MIP Presolve eliminated 112 rows and 0 columns.
MIP Presolve modified 19 coefficients.
Reduced MIP has 111 rows, 56 columns, and 298 nonzeros.
Reduced MIP has 41 binaries, 15 generals, 0 SOSs, and 0 indicators.
Presolve time = 0.00 sec. (0.32 ticks)
Probing fixed 0 vars, tightened 4 bounds.
Probing time = 0.00 sec. (0.08 ticks)
Cover probing fixed 0 vars, tightened 3 bounds.
Clique table members: 97.
MIP emphasis: balance optimality and feasibility.
MIP search method: dynamic search.
Parallel mode: deterministic, using up to 4 threads.
Root relaxation solution time = 0.00 sec. (0.21 ticks)

        Nodes                                         Cuts/
   Node  Left     Objective  IInf  Best Integer    Best Bound    ItCnt     Gap

*     0+    0                            4.0000       16.0000           300.00%
*     0+    0                            8.0000       16.0000           100.00%
      0     0       10.0000    32        8.0000       10.0000       44   25.00%
      0     0       10.0000    32        8.0000      Cuts: 17       79   25.00%
      0     0       10.0000    32        8.0000      Cuts: 43      129   25.00%
      0     0       10.0000    32        8.0000      Cuts: 13      157   25.00%
*     0+    0                            9.0000       10.0000            11.11%
      0     0        cutoff              9.0000        9.0000      157    0.00%
Elapsed time = 0.02 sec. (7.98 ticks, tree = 0.01 MB, solutions = 3)
the number of Nodes = 0
